HFSDDW
20	4	2
0	77	1	67
0	74	1	75
0	70	1	99
0	17	1	54
0	25	1	8
0	14	1	6
0	23	1	42
0	82	1	75
0	90	1	74
0	25	1	98
0	1	1	56
0	98	1	99
0	9	1	18
0	65	1	16
0	13	1	65
0	65	1	45
0	28	1	81
0	48	1	36
0	92	1	88
0	29	1	77
LBCmax: 595
RELDUE
-1	337	4	1
-1	401	4	6
-1	362	4	7
-1	403	7	4
-1	398	9	5
-1	399	8	1
-1	344	5	5
-1	337	6	2
-1	363	1	1
-1	314	2	3
-1	391	7	3
-1	395	6	9
-1	382	8	8
-1	364	7	7
-1	318	6	3
-1	322	7	2
-1	379	2	7
-1	386	4	3
-1	377	5	9
-1	359	5	2
DDW
334	340
361	441
348	376
399	407
382	414
367	431
330	358
327	347
327	399
311	317
383	399
371	419
355	409
346	382
293	343
319	325
360	398
367	405
347	407
337	381
